\ This file was automatically generated by Zimpl
\ var w1 <= 0;
\ var w2 >= 0;
\ var w3 >= -infinity;
\ minimize Z :     5*w1 + 4*w2 + 6*w3;
\ subto r1:     1*w1 + 2*w2 + 0*w3 >= 2;
\ subto r2:     1*w1 + 0*w2 + 6*w3 <= 3;
\ subto r3:     -1*w1 + 1*w2 + 1*w3 <= -5;
\ subto r4:     1*w1 + 0*w2 + 1*w3 == 0;
\Problem name: .\pd.zpl
Minimize
 Z:  +5 w1 +4 w2 +6 w3
Subject to
 r1_1:
  +2 w2 + w1 >= 2
 r2_1:
  +6 w3 + w1 <= 3
 r3_1:
  + w3 + w2 - w1 <= -5
 r4_1:
  + w3 + w1 = 0
Bounds
 w1 = 0
 0 <= w2 <= +inf
 -inf <= w3 <= +inf
End
